factor19x37_3sat.dimacs
p cnf 241 331
3 -4 -12 0
-5 -6 -13 0
9 -10 -14 0
12 13 14 0
-4 -5 -15 0
6 8 -16 0
15 16 11 0
-2 -3 -17 0
-8 -9 -18 0
17 18 11 0
-2 -5 -19 0
10 -11 -20 0
19 20 0
2 -3 -21 0
-4 -5 -22 0
-8 -10 -23 0
21 22 23 0
-2 3 -24 0
4 8 -25 0
9 -11 -26 0
24 25 26 0
-3 -5 -27 0
-6 8 -28 0
10 11 -29 0
27 28 29 0
-3 4 -30 0
-5 -6 -31 0
9 -10 -32 0
30 31 -33 0
32 -11 -34 0
33 34 0
-4 -5 -35 0
-10 -11 -36 0
35 36 0
7 0
-2 3 -37 0
-4 5 -38 0
-6 -8 -39 0
37 38 39 0
4 5 -40 0
-6 8 -41 0
40 41 -10 0
3 4 -42 0
-8 10 -43 0
42 43 0
-4 -10 -11 0
-6 10 11 0
-2 -3 -44 0
-5 -6 -45 0
8 -10 -46 0
44 45 -47 0
46 -11 -48 0
47 48 0
-2 3 -49 0
-4 5 -50 0
-8 -10 -51 0
49 50 -52 0
51 -11 -53 0
52 53 0
2 4 -54 0
6 -11 -55 0
54 55 0
2 -3 -56 0
6 -9 -57 0
-10 -11 -58 0
56 57 58 0
-2 -3 -59 0
4 10 -60 0
59 60 0
-3 -9 -11 0
-3 5 -61 0
9 11 -62 0
61 62 0
3 4 -63 0
-5 -6 -64 0
8 -10 -65 0
63 64 65 0
-4 -8 -66 0
-9 -10 -67 0
66 67 0
5 -6 -68 0
-10 -11 -69 0
68 69 0
-2 4 -70 0
5 8 -71 0
-9 -10 -72 0
70 71 -73 0
72 -11 -74 0
73 74 0
4 -5 -75 0
-6 -8 -76 0
9 11 -77 0
75 76 77 0
4 6 10 0
-5 9 -78 0
10 -11 -79 0
78 79 0
2 -4 -80 0
-5 -9 -81 0
80 81 10 0
5 -8 -82 0
-10 11 -83 0
82 83 0
-2 -4 -84 0
-8 -9 -85 0
-10 -11 -86 0
84 85 86 0
1 0
-6 8 -87 0
9 -11 -88 0
87 88 0
-3 -5 -89 0
-6 -8 -90 0
-9 -10 -91 0
89 90 91 0
3 5 -92 0
6 -8 -93 0
10 11 -94 0
92 93 94 0
-4 -5 -95 0
-9 10 -96 0
95 96 11 0
6 11 0
-3 -4 -97 0
5 -8 -98 0
97 98 10 0
2 3 -99 0
4 5 -100 0
99 100 -6 0
2 -5 -101 0
-10 -11 -102 0
101 102 0
3 6 -103 0
-8 -9 -104 0
-10 11 -105 0
103 104 105 0
-4 5 -106 0
6 10 -107 0
106 107 11 0
-2 -4 -108 0
-9 10 -109 0
108 109 0
-5 -6 -110 0
-8 -9 -111 0
10 11 -112 0
110 111 112 0
-3 -4 -113 0
-6 -10 -114 0
113 114 -11 0
2 8 0
3 -6 -115 0
-8 -11 -116 0
115 116 0
-2 3 -117 0
5 -6 -118 0
117 118 -11 0
-4 5 -119 0
8 11 -120 0
119 120 0
4 6 -121 0
8 10 -122 0
121 122 11 0
4 -5 -123 0
-6 -9 -124 0
10 11 -125 0
123 124 125 0
-2 -4 -126 0
-5 -8 -127 0
9 -10 -128 0
126 127 -129 0
128 11 -130 0
129 130 0
-2 5 -131 0
10 11 -132 0
131 132 0
2 6 -133 0
8 9 -134 0
133 134 10 0
4 8 -135 0
9 10 -136 0
135 136 0
2 3 -137 0
4 5 -138 0
137 138 6 0
-4 8 -139 0
9 -10 -140 0
139 140 0
3 4 -141 0
-5 -10 -142 0
141 142 -11 0
-3 4 -143 0
-5 -8 -144 0
9 -10 -145 0
143 144 145 0
-2 4 -146 0
6 10 -147 0
146 147 11 0
4 5 -148 0
-8 11 -149 0
148 149 0
-3 -4 -150 0
-9 -10 -151 0
150 151 -11 0
-2 3 -152 0
-4 6 -153 0
-9 -11 -154 0
152 153 154 0
4 5 -155 0
10 11 -156 0
155 156 0
-4 5 -157 0
-8 9 -158 0
-10 11 -159 0
157 158 159 0
-3 -4 -160 0
5 -6 -161 0
8 -9 -162 0
-10 11 -163 0
160 161 -164 0
162 163 -165 0
164 165 0
3 -4 -166 0
-5 -8 -167 0
10 11 -168 0
166 167 168 0
3 9 0
2 3 -169 0
-4 -10 -170 0
169 170 0
-3 5 -171 0
6 9 -172 0
10 -11 -173 0
171 172 173 0
-2 -4 -174 0
5 -6 -175 0
174 175 -8 0
5 6 0
3 5 -176 0
-6 9 -177 0
176 177 -10 0
3 -4 -178 0
-5 -8 -179 0
-9 -11 -180 0
178 179 180 0
3 -4 -181 0
-5 -6 -182 0
-8 10 -183 0
181 182 -184 0
183 -11 -185 0
184 185 0
-2 -8 0
-2 -3 -186 0
-5 9 -187 0
-10 -11 -188 0
186 187 188 0
3 -4 -189 0
5 -8 -190 0
10 -11 -191 0
189 190 191 0
3 -4 -192 0
-5 -9 -193 0
192 193 11 0
-4 -5 -194 0
8 9 -195 0
194 195 11 0
-3 4 -196 0
-9 10 -197 0
196 197 0
3 4 -198 0
8 -10 -199 0
198 199 0
2 -4 -200 0
9 10 -201 0
200 201 0
-2 -3 -202 0
-4 -5 -203 0
202 203 6 0
-2 -5 -204 0
-6 -8 -205 0
-10 -11 -206 0
204 205 206 0
-6 -8 -207 0
-10 11 -208 0
207 208 0
2 -3 -209 0
-6 -8 -210 0
-9 -10 -211 0
209 210 -212 0
211 -11 -213 0
212 213 0
-2 -3 -214 0
-4 5 -215 0
9 -11 -216 0
214 215 216 0
4 -5 -217 0
10 -11 -218 0
217 218 0
2 4 -219 0
5 6 -220 0
9 10 -221 0
219 220 221 0
2 3 -222 0
-4 11 -223 0
222 223 0
-3 4 -224 0
-5 -10 -225 0
224 225 11 0
-2 -3 -226 0
-4 -10 -227 0
226 227 0
8 9 -228 0
10 11 -229 0
228 229 0
-3 -9 0
-4 -6 -230 0
-9 -11 -231 0
230 231 0
-2 -3 -232 0
4 5 -233 0
-10 -11 -234 0
232 233 234 0
3 4 -235 0
-5 -6 -236 0
-8 -10 -237 0
235 236 237 0
4 5 -238 0
-10 11 -239 0
238 239 0
-3 4 -240 0
-6 -10 -241 0
240 241 0
